% demand
num_movements = 46;
loading_factor = [850, 850, 1200, 1050, 950, 1250, 800, 1750, 900, 1300, 1800, 1450, 1750, 1600, 950, 1050, 1800, 1450, 1750, 2000, 800, 850, 1650, 1800, 1100, 2000, 1450, 1650, 1250, 1700, 1850, 1650, 1900, 1800, 1850, 1000, 1950, 1600, 800, 1400, 1200, 800, 1100, 1350, 1900, 1800];
pickup_time = [0, 0, 1, 1, 1, 1, 1, 1, 1, 1, 1, 2, 2, 3, 3, 3, 3, 3, 3, 3, 5, 6, 6, 6, 7, 7, 7, 7, 7, 7, 7, 8, 8, 8, 8, 8, 10, 11, 11, 12, 12, 13, 13, 13, 13, 13];
delivery_time = [1, 1, 3, 3, 3, 3, 2, 2, 3, 2, 3, 3, 3, 5, 6, 6, 5, 7, 5, 5, 7, 7, 7, 7, 9, 8, 8, 8, 8, 9, 8, 9, 9, 9, 9, 11, 11, 12, 12, 13, 13, 14, 14, 14, 14, 14];

% transporter definition
total_capacity = 11000;
num_decks = 4;
capacity = [3000, 3000, 1000, 4000];

% ways out of decks
num_ways_out = 2;
paths_out = array3d(decks, ways_out, decks, [
% ways out of deck d1
2, 4, 0, 0, 3, 4, 0, 0, 

% ways out of deck d2
4, 0, 0, 0, 0, 0, 0, 0,	

% ways out of deck d3
4, 0, 0, 0, 0, 0, 0, 0,	

% ways out of deck d4
0, 0, 0, 0,	0, 0, 0, 0,	

]);

